WARNING: for repeatability, setting FPU to use double precision
============================[ Problem Statistics ]=============================
|                                                                             |
|  Number of variables:         73525                                         |
|  Number of clauses:          269141                                         |
|  Parse time:                   0.04 s                                       |
|                                                                             |
============================[ Search Statistics ]==============================
| Conflicts |          ORIGINAL         |          LEARNT          | Progress |
|           |    Vars  Clauses Literals |    Limit  Clauses Lit/Cl |          |
===============================================================================
|       100 |   72104   265937   674306 |    97510       99      3 |  1.933 % |
|       250 |   72104   265937   674306 |   107261      249      6 |  1.933 % |
|       475 |   72104   265937   674306 |   117987      474      6 |  1.933 % |
|       812 |   72104   265937   674306 |   129786      811      7 |  1.933 % |
|      1318 |   72104   265899   674223 |   142764     1317      8 |  1.933 % |
|      2077 |   72104   265899   674223 |   157041     2076      8 |  1.933 % |
|      3216 |   72085   265785   673942 |   172745     3206     10 |  1.959 % |
|      4924 |   72085   265785   673942 |   190019     4914     11 |  1.959 % |
|      7486 |   71998   265385   672939 |   209021     7446     12 |  2.077 % |
|     11330 |   71971   265260   672618 |   229924    11271     13 |  2.114 % |
===============================================================================
restarts              : 60
conflicts             : 13557          (12214 /sec)
decisions             : 118762         (0.00 % random) (106993 /sec)
propagations          : 12865320       (11590378 /sec)
conflict literals     : 175255         (21.45 % deleted)
Memory used           : 37.00 MB
CPU time              : 1.11 s

SATISFIABLE
